h -15 12 0
h -1 -5 0
h -9 36 -10 17 0
h 7 -4 0
h -10 31 18 -9 0
18351688 -31 0
12939848 -36 0
h -10 1 0
h 15 -12 0
163792300 -35 0
h 33 13 0
h -1 10 0
h 6 -1 5 0
1 -22 0
h -15 -19 0
h 36 10 -17 0
h -6 -21 0
h 5 19 0
131387175 -27 0
h 15 18 4 34 0
h 22 -3 5 0
49277412 -29 0
h 32 -13 10 0
h 4 17 29 0
h 1 9 0
h -21 27 3 0
h 3 21 0
h -6 -18 0
180377791 -32 0
h 35 -13 0
162231265 -34 0
